
Gurobi 8.1.1 (win64, Python) logging started 12/28/19 00:37:18

Academic license - for non-commercial use only

Gurobi 8.1.1 (win64, Python) logging started 12/28/19 21:23:37

Academic license - for non-commercial use only

Gurobi 8.1.1 (win64, Python) logging started 12/28/19 21:43:12

Academic license - for non-commercial use only

Gurobi 8.1.1 (win64, Python) logging started 01/04/20 18:24:41

Academic license - for non-commercial use only

Gurobi 8.1.1 (win64, Python) logging started 01/04/20 22:16:16

Academic license - for non-commercial use only

Gurobi 8.1.1 (win64, Python) logging started 01/04/20 22:17:05

Academic license - for non-commercial use only

Gurobi 8.1.1 (win64, Python) logging started 01/04/20 22:35:17

Academic license - for non-commercial use only

Gurobi 8.1.1 (win64, Python) logging started 01/04/20 23:27:30

Academic license - for non-commercial use only

Gurobi 8.1.1 (win64, Python) logging started 01/04/20 23:27:54

Academic license - for non-commercial use only
Optimize a model with 25 rows, 24 columns and 32 nonzeros
Coefficient statistics:
  Matrix range     [1e+00, 1e+00]
  Objective range  [1e+00, 1e+00]
  Bounds range     [0e+00, 0e+00]
  RHS range        [1e+00, 1e+00]
Presolve removed 25 rows and 24 columns
Presolve time: 0.01s
Presolve: All rows and columns removed
Iteration    Objective       Primal Inf.    Dual Inf.      Time
       0   -1.0000000e+00   0.000000e+00   0.000000e+00      0s

Solved in 0 iterations and 0.01 seconds
Optimal objective -1.000000000e+00
Optimize a model with 25 rows, 24 columns and 32 nonzeros
Coefficient statistics:
  Matrix range     [1e+00, 1e+00]
  Objective range  [1e+00, 1e+00]
  Bounds range     [0e+00, 0e+00]
  RHS range        [1e+00, 1e+00]
Iteration    Objective       Primal Inf.    Dual Inf.      Time
       0    7.0000000e+30   1.500000e+31   7.000000e+00      0s
       4    1.0000000e+00   0.000000e+00   0.000000e+00      0s

Solved in 4 iterations and 0.00 seconds
Optimal objective  1.000000000e+00
Optimize a model with 25 rows, 24 columns and 32 nonzeros
Coefficient statistics:
  Matrix range     [1e+00, 1e+00]
  Objective range  [1e+00, 1e+00]
  Bounds range     [0e+00, 0e+00]
  RHS range        [1e+00, 1e+00]
Iteration    Objective       Primal Inf.    Dual Inf.      Time
       0   -2.0000000e+30   2.000000e+30   2.000000e+00      0s
       3   -1.0000000e+00   0.000000e+00   0.000000e+00      0s

Solved in 3 iterations and 0.00 seconds
Optimal objective -1.000000000e+00
Optimize a model with 25 rows, 24 columns and 32 nonzeros
Coefficient statistics:
  Matrix range     [1e+00, 1e+00]
  Objective range  [1e+00, 1e+00]
  Bounds range     [0e+00, 0e+00]
  RHS range        [1e+00, 1e+00]
Iteration    Objective       Primal Inf.    Dual Inf.      Time
       0    8.0000000e+30   2.000000e+31   8.000000e+00      0s
       6    1.0000000e+00   0.000000e+00   0.000000e+00      0s

Solved in 6 iterations and 0.00 seconds
Optimal objective  1.000000000e+00
Optimize a model with 25 rows, 24 columns and 32 nonzeros
Coefficient statistics:
  Matrix range     [1e+00, 1e+00]
  Objective range  [1e+00, 1e+00]
  Bounds range     [0e+00, 0e+00]
  RHS range        [1e+00, 1e+00]
Iteration    Objective       Primal Inf.    Dual Inf.      Time
       0   -2.0000000e+30   4.000000e+30   2.000000e+00      0s
       2   -1.0000000e+00   0.000000e+00   0.000000e+00      0s

Solved in 2 iterations and 0.00 seconds
Optimal objective -1.000000000e+00
Optimize a model with 25 rows, 24 columns and 32 nonzeros
Coefficient statistics:
  Matrix range     [1e+00, 1e+00]
  Objective range  [1e+00, 1e+00]
  Bounds range     [0e+00, 0e+00]
  RHS range        [1e+00, 1e+00]
Iteration    Objective       Primal Inf.    Dual Inf.      Time
       0    8.0000000e+30   2.000000e+31   8.000000e+00      0s
       6    1.0000000e+00   0.000000e+00   0.000000e+00      0s

Solved in 6 iterations and 0.00 seconds
Optimal objective  1.000000000e+00
Optimize a model with 25 rows, 24 columns and 32 nonzeros
Coefficient statistics:
  Matrix range     [1e+00, 1e+00]
  Objective range  [1e+00, 1e+00]
  Bounds range     [0e+00, 0e+00]
  RHS range        [1e+00, 1e+00]
Iteration    Objective       Primal Inf.    Dual Inf.      Time
       0   -3.0000000e+30   6.000000e+30   3.000000e+00      0s
       2   -1.0000000e+00   0.000000e+00   0.000000e+00      0s

Solved in 2 iterations and 0.00 seconds
Optimal objective -1.000000000e+00
Optimize a model with 25 rows, 24 columns and 32 nonzeros
Coefficient statistics:
  Matrix range     [1e+00, 1e+00]
  Objective range  [1e+00, 1e+00]
  Bounds range     [0e+00, 0e+00]
  RHS range        [1e+00, 1e+00]
Iteration    Objective       Primal Inf.    Dual Inf.      Time
       0    8.0000000e+30   1.800000e+31   8.000000e+00      0s
       5    1.0000000e+00   0.000000e+00   0.000000e+00      0s

Solved in 5 iterations and 0.00 seconds
Optimal objective  1.000000000e+00
Optimize a model with 25 rows, 24 columns and 32 nonzeros
Coefficient statistics:
  Matrix range     [1e+00, 1e+00]
  Objective range  [1e+00, 1e+00]
  Bounds range     [0e+00, 0e+00]
  RHS range        [1e+00, 1e+00]
Iteration    Objective       Primal Inf.    Dual Inf.      Time
       0   -3.0000000e+30   6.000000e+30   3.000000e+00      0s
       2   -1.0000000e+00   0.000000e+00   0.000000e+00      0s

Solved in 2 iterations and 0.00 seconds
Optimal objective -1.000000000e+00
Optimize a model with 25 rows, 24 columns and 32 nonzeros
Coefficient statistics:
  Matrix range     [1e+00, 1e+00]
  Objective range  [1e+00, 1e+00]
  Bounds range     [0e+00, 0e+00]
  RHS range        [1e+00, 1e+00]
Iteration    Objective       Primal Inf.    Dual Inf.      Time
       0    8.0000000e+30   1.800000e+31   8.000000e+00      0s
       5    1.0000000e+00   0.000000e+00   0.000000e+00      0s

Solved in 5 iterations and 0.00 seconds
Optimal objective  1.000000000e+00
Optimize a model with 25 rows, 24 columns and 32 nonzeros
Coefficient statistics:
  Matrix range     [1e+00, 1e+00]
  Objective range  [1e+00, 1e+00]
  Bounds range     [0e+00, 0e+00]
  RHS range        [1e+00, 1e+00]
Iteration    Objective       Primal Inf.    Dual Inf.      Time
       0   -1.0000000e+31   2.400000e+31   1.000000e+01      0s
       6   -1.0000000e+00   0.000000e+00   0.000000e+00      0s

Solved in 6 iterations and 0.00 seconds
Optimal objective -1.000000000e+00
Optimize a model with 25 rows, 24 columns and 32 nonzeros
Coefficient statistics:
  Matrix range     [1e+00, 1e+00]
  Objective range  [1e+00, 1e+00]
  Bounds range     [0e+00, 0e+00]
  RHS range        [1e+00, 1e+00]
Iteration    Objective       Primal Inf.    Dual Inf.      Time
       0    1.0000000e+31   2.400000e+31   1.000000e+01      0s
       7    1.0000000e+00   0.000000e+00   0.000000e+00      0s

Solved in 7 iterations and 0.00 seconds
Optimal objective  1.000000000e+00

Gurobi 8.1.1 (win64, Python) logging started 01/04/20 23:33:03

Academic license - for non-commercial use only

Gurobi 8.1.1 (win64, Python) logging started 01/04/20 23:33:54

Academic license - for non-commercial use only

Gurobi 8.1.1 (win64, Python) logging started 01/04/20 23:34:19

Academic license - for non-commercial use only

Gurobi 8.1.1 (win64, Python) logging started 01/04/20 23:36:17

Academic license - for non-commercial use only

Gurobi 8.1.1 (win64, Python) logging started 01/04/20 23:37:15

Academic license - for non-commercial use only

Gurobi 8.1.1 (win64, Python) logging started 01/04/20 23:39:35

Academic license - for non-commercial use only

Gurobi 8.1.1 (win64, Python) logging started 01/04/20 23:43:09

Academic license - for non-commercial use only

Gurobi 8.1.1 (win64, Python) logging started 01/04/20 23:43:34

Academic license - for non-commercial use only

Gurobi 8.1.1 (win64, Python) logging started 01/05/20 00:49:43

Academic license - for non-commercial use only

Gurobi 8.1.1 (win64, Python) logging started 01/05/20 00:50:15

Academic license - for non-commercial use only

Gurobi 8.1.1 (win64, Python) logging started 01/05/20 00:52:20

Academic license - for non-commercial use only

Gurobi 8.1.1 (win64, Python) logging started 01/05/20 00:53:30

Academic license - for non-commercial use only

Gurobi 8.1.1 (win64, Python) logging started 01/05/20 00:53:43

Academic license - for non-commercial use only

Gurobi 8.1.1 (win64, Python) logging started 01/05/20 00:56:09

Academic license - for non-commercial use only

Gurobi 8.1.1 (win64, Python) logging started 01/05/20 00:56:20

Academic license - for non-commercial use only

Gurobi 8.1.1 (win64, Python) logging started 01/05/20 00:56:27

Academic license - for non-commercial use only

Gurobi 8.1.1 (win64, Python) logging started 01/05/20 00:56:33

Academic license - for non-commercial use only

Gurobi 8.1.1 (win64, Python) logging started 01/05/20 00:56:38

Academic license - for non-commercial use only

Gurobi 8.1.1 (win64, Python) logging started 01/05/20 00:56:41

Academic license - for non-commercial use only

Gurobi 8.1.1 (win64, Python) logging started 01/05/20 00:56:44

Academic license - for non-commercial use only

Gurobi 8.1.1 (win64, Python) logging started 01/05/20 00:56:46

Academic license - for non-commercial use only

Gurobi 8.1.1 (win64, Python) logging started 01/05/20 00:56:47

Academic license - for non-commercial use only

Gurobi 8.1.1 (win64, Python) logging started 01/05/20 00:56:48

Academic license - for non-commercial use only

Gurobi 8.1.1 (win64, Python) logging started 01/05/20 00:56:49

Academic license - for non-commercial use only

Gurobi 8.1.1 (win64, Python) logging started 01/05/20 00:56:50

Academic license - for non-commercial use only

Gurobi 8.1.1 (win64, Python) logging started 01/05/20 00:56:51

Academic license - for non-commercial use only

Gurobi 8.1.1 (win64, Python) logging started 01/05/20 00:56:52

Academic license - for non-commercial use only

Gurobi 8.1.1 (win64, Python) logging started 01/05/20 00:56:53

Academic license - for non-commercial use only

Gurobi 8.1.1 (win64, Python) logging started 01/05/20 00:56:54

Academic license - for non-commercial use only

Gurobi 8.1.1 (win64, Python) logging started 01/05/20 00:56:56

Academic license - for non-commercial use only

Gurobi 8.1.1 (win64, Python) logging started 01/05/20 00:56:57

Academic license - for non-commercial use only

Gurobi 8.1.1 (win64, Python) logging started 01/05/20 14:17:15

Academic license - for non-commercial use only

Gurobi 8.1.1 (win64, Python) logging started 01/05/20 14:17:42

Academic license - for non-commercial use only

Gurobi 8.1.1 (win64, Python) logging started 01/05/20 14:18:19

Academic license - for non-commercial use only

Gurobi 8.1.1 (win64, Python) logging started 01/05/20 14:18:40

Academic license - for non-commercial use only

Gurobi 8.1.1 (win64, Python) logging started 01/05/20 15:48:05

Academic license - for non-commercial use only

Gurobi 8.1.1 (win64, Python) logging started 01/05/20 15:59:15

Academic license - for non-commercial use only

Gurobi 8.1.1 (win64, Python) logging started 01/05/20 16:17:43

Academic license - for non-commercial use only

Gurobi 8.1.1 (win64, Python) logging started 01/05/20 16:18:09

Academic license - for non-commercial use only

Gurobi 8.1.1 (win64, Python) logging started 01/05/20 16:21:02

Academic license - for non-commercial use only

Gurobi 8.1.1 (win64, Python) logging started 01/05/20 16:21:16

Academic license - for non-commercial use only

Gurobi 8.1.1 (win64, Python) logging started 01/05/20 16:29:26

Academic license - for non-commercial use only

Gurobi 8.1.1 (win64, Python) logging started 01/05/20 16:31:05

Academic license - for non-commercial use only

Gurobi 8.1.1 (win64, Python) logging started 01/05/20 16:31:28

Academic license - for non-commercial use only

Gurobi 8.1.1 (win64, Python) logging started 01/05/20 16:31:57

Academic license - for non-commercial use only

Gurobi 8.1.1 (win64, Python) logging started 01/05/20 16:32:57

Academic license - for non-commercial use only

Gurobi 8.1.1 (win64, Python) logging started 01/05/20 16:41:09

Academic license - for non-commercial use only

Gurobi 8.1.1 (win64, Python) logging started 01/05/20 16:42:04

Academic license - for non-commercial use only

Gurobi 8.1.1 (linux64, Python) logging started Sat Jan  2 23:46:02 2021

Academic license - for non-commercial use only

Gurobi 8.1.1 (linux64, Python) logging started Wed Feb  3 19:30:30 2021


--------------------------------------------
Warning: your license will expire in 14 days
--------------------------------------------

Academic license - for non-commercial use only

Gurobi 8.1.1 (linux64, Python) logging started Wed Feb  3 19:33:42 2021


--------------------------------------------
Warning: your license will expire in 14 days
--------------------------------------------

Academic license - for non-commercial use only

Gurobi 8.1.1 (linux64, Python) logging started Wed Feb  3 19:33:59 2021


--------------------------------------------
Warning: your license will expire in 14 days
--------------------------------------------

Academic license - for non-commercial use only

Gurobi 8.1.1 (linux64, Python) logging started Wed Feb  3 19:36:58 2021


--------------------------------------------
Warning: your license will expire in 14 days
--------------------------------------------

Academic license - for non-commercial use only

Gurobi 8.1.1 (linux64, Python) logging started Wed Feb  3 19:37:15 2021


--------------------------------------------
Warning: your license will expire in 14 days
--------------------------------------------

Academic license - for non-commercial use only

Gurobi 8.1.1 (linux64, Python) logging started Wed Feb  3 19:38:44 2021


--------------------------------------------
Warning: your license will expire in 14 days
--------------------------------------------

Academic license - for non-commercial use only

Gurobi 8.1.1 (linux64, Python) logging started Wed Feb  3 19:39:02 2021


--------------------------------------------
Warning: your license will expire in 14 days
--------------------------------------------

Academic license - for non-commercial use only

Gurobi 8.1.1 (linux64, Python) logging started Wed Feb  3 19:39:14 2021


--------------------------------------------
Warning: your license will expire in 14 days
--------------------------------------------

Academic license - for non-commercial use only

Gurobi 8.1.1 (linux64, Python) logging started Wed Feb  3 19:39:39 2021


--------------------------------------------
Warning: your license will expire in 14 days
--------------------------------------------

Academic license - for non-commercial use only

Gurobi 8.1.1 (linux64, Python) logging started Wed Feb  3 19:46:36 2021


--------------------------------------------
Warning: your license will expire in 14 days
--------------------------------------------

Academic license - for non-commercial use only

Gurobi 8.1.1 (linux64, Python) logging started Wed Feb  3 19:46:56 2021


--------------------------------------------
Warning: your license will expire in 14 days
--------------------------------------------

Academic license - for non-commercial use only

Gurobi 8.1.1 (linux64, Python) logging started Wed Feb  3 19:47:49 2021


--------------------------------------------
Warning: your license will expire in 14 days
--------------------------------------------

Academic license - for non-commercial use only

Gurobi 8.1.1 (linux64, Python) logging started Wed Feb  3 19:51:49 2021


--------------------------------------------
Warning: your license will expire in 14 days
--------------------------------------------

Academic license - for non-commercial use only

Gurobi 8.1.1 (linux64, Python) logging started Wed Feb  3 19:53:20 2021


--------------------------------------------
Warning: your license will expire in 14 days
--------------------------------------------

Academic license - for non-commercial use only

Gurobi 8.1.1 (linux64, Python) logging started Wed Feb  3 19:56:14 2021


--------------------------------------------
Warning: your license will expire in 14 days
--------------------------------------------

Academic license - for non-commercial use only

Gurobi 8.1.1 (linux64, Python) logging started Wed Feb  3 20:03:53 2021


--------------------------------------------
Warning: your license will expire in 14 days
--------------------------------------------

Academic license - for non-commercial use only

Gurobi 8.1.1 (linux64, Python) logging started Thu Feb  4 02:07:22 2021


--------------------------------------------
Warning: your license will expire in 13 days
--------------------------------------------

Academic license - for non-commercial use only

Gurobi 8.1.1 (linux64, Python) logging started Thu Feb  4 02:08:21 2021


--------------------------------------------
Warning: your license will expire in 13 days
--------------------------------------------

Academic license - for non-commercial use only

Gurobi 8.1.1 (linux64, Python) logging started Thu Feb  4 02:09:28 2021


--------------------------------------------
Warning: your license will expire in 13 days
--------------------------------------------

Academic license - for non-commercial use only

Gurobi 8.1.1 (linux64, Python) logging started Tue Feb  9 19:42:49 2021

Academic license - for non-commercial use only

Gurobi 8.1.1 (linux64, Python) logging started Tue Feb  9 20:35:05 2021

Academic license - for non-commercial use only

Gurobi 8.1.1 (linux64, Python) logging started Tue Feb  9 20:36:49 2021

Academic license - for non-commercial use only

Gurobi 8.1.1 (linux64, Python) logging started Tue Feb  9 20:50:22 2021

Academic license - for non-commercial use only

Gurobi 8.1.1 (linux64, Python) logging started Tue Feb  9 21:00:19 2021

Academic license - for non-commercial use only

Gurobi 8.1.1 (linux64, Python) logging started Thu Feb 11 12:43:58 2021

Academic license - for non-commercial use only

Gurobi 8.1.1 (linux64, Python) logging started Thu Feb 11 12:47:09 2021

Academic license - for non-commercial use only

Gurobi 8.1.1 (linux64, Python) logging started Sat Feb 27 13:39:34 2021

Academic license - for non-commercial use only

Gurobi 8.1.1 (linux64, Python) logging started Sun Aug 29 02:02:37 2021


Gurobi 8.1.1 (linux64, Python) logging started Sun Aug 29 02:13:06 2021

Academic license - for non-commercial use only
